************************************************************************
file with basedata            : n/a
initial value random generator: n/a
************************************************************************
projects                      :  1
jobs (incl. supersource/sink ):  122
horizon                       :  664
RESOURCES
  - renewable                 :  4   R
  - nonrenewable              :  0   N
  - doubly constrained        :  0   D
************************************************************************
PROJECT INFORMATION:
pronr.  #jobs rel.date duedate tardcost  MPM-Time
    1    120      0      101       96      101
************************************************************************
PRECEDENCE RELATIONS:
jobnr.    #modes  #successors   successors
   1        1          3           2   3   4
   2        1          3          11  12  46
   3        1          3           8  16  75
   4        1          3           5   6  31
   5        1          3          10  24  27
   6        1          3           7  32  38
   7        1          3          17  22  39
   8        1          3           9  42  62
   9        1          3          15  26  65
  10        1          3          14  30  66
  11        1          2          13  52
  12        1          3          21  35  82
  13        1          1          33
  14        1          2          83 119
  15        1          3          20  47  64
  16        1          2          18  29
  17        1          3          19  37  61
  18        1          3          23  80  88
  19        1          3          25  28  73
  20        1          1          55
  21        1          2          48  96
  22        1          2          27  44
  23        1          1          84
  24        1          1          68
  25        1          1          36
  26        1          3          34  40  50
  27        1          1          50
  28        1          1          93
  29        1          3          69  89 101
  30        1          1         107
  31        1          3          53  89 107
  32        1          1          60
  33        1          1          63
  34        1          2          44  93
  35        1          1          37
  36        1          1          51
  37        1          3          47  73  83
  38        1          3          63  67  86
  39        1          1          41
  40        1          1          81
  41        1          2          67 101
  42        1          2          43  56
  43        1          3          45  54  90
  44        1          2          76  86
  45        1          1         110
  46        1          3          65  94 104
  47        1          3          59  60  91
  48        1          3          49  58  76
  49        1          3          74  78  85
  50        1          1          83
  51        1          3          67  92 109
  52        1          2         107 114
  53        1          3          56  57  75
  54        1          3          65  70  92
  55        1          1          82
  56        1          1          79
  57        1          1          87
  58        1          2          70 104
  59        1          2          68  94
  60        1          1          99
  61        1          3          66  95  96
  62        1          3          63  69  71
  63        1          1         117
  64        1          2          74  98
  65        1          3          95 102 105
  66        1          2          91  92
  67        1          1          77
  68        1          2          70  97
  69        1          2          93  97
  70        1          1          72
  71        1          1         115
  72        1          2          78  98
  73        1          1         116
  74        1          1         112
  75        1          1         105
  76        1          3          84  87  90
  77        1          3          81  87 106
  78        1          1         101
  79        1          1          99
  80        1          2          81 110
  81        1          2          99 121
  82        1          1          97
  83        1          2          88 103
  84        1          2          94 112
  85        1          3          88  89  90
  86        1          1         106
  87        1          1          91
  88        1          1         105
  89        1          1         114
  90        1          2         100 106
  91        1          2         100 108
  92        1          1         111
  93        1          2          95 100
  94        1          1          98
  95        1          1         115
  96        1          1         109
  97        1          1         102
  98        1          1         118
  99        1          1         120
 100        1          2         104 110
 101        1          2         102 119
 102        1          2         108 111
 103        1          1         111
 104        1          1         117
 105        1          1         109
 106        1          2         118 121
 107        1          2         108 112
 108        1          1         116
 109        1          1         113
 110        1          2         113 117
 111        1          1         113
 112        1          1         115
 113        1          1         114
 114        1          1         118
 115        1          2         116 119
 116        1          1         121
 117        1          1         120
 118        1          1         120
 119        1          1         122
 120        1          1         122
 121        1          1         122
 122        1          0        
************************************************************************
REQUESTS/DURATIONS:
jobnr. mode duration  R 1  R 2  R 3  R 4
------------------------------------------------------------------------
  1      1     0    
  2      1     9       1   1   1   1   1   1   1   1   1
                       5   5   5   5   5   5   5   5   5
                       6   6   6   6   6   6   6   6   6
                      10  10  10  10  10  10  10  10  10
  3      1     6       2   2   2   2   0   2
                       5   5   5   5   0   5
                       9   9   9   9   0   9
                       5   5   5   5   0   5
  4      1     4       5   0   5   5
                       4   0   4   4
                      10   0  10  10
                       5   0   5   5
  5      1     2       9   9
                       6   6
                       3   3
                       7   7
  6      1     6       1   1   1   1   1   1
                       5   5   5   5   5   5
                       7   7   7   7   7   7
                       4   4   4   4   4   4
  7      1     5       7   0   7   7   7
                       2   0   2   2   2
                       5   0   5   5   5
                       1   0   1   1   1
  8      1     1       5
                       1
                       4
                       4
  9      1     6       6   6   6   6   6   6
                       5   5   5   5   5   5
                       1   1   1   1   1   1
                       6   6   6   6   6   6
 10      1     4       1   1   1   1
                       8   8   8   8
                       8   8   8   8
                       4   4   4   4
 11      1     8       7   7   7   7   7   7   7   7
                       1   1   1   1   1   1   1   1
                       1   1   1   1   1   1   1   1
                       4   4   4   4   4   4   4   4
 12      1     6       7   7   7   7   7   7
                       3   3   3   3   3   3
                      10  10  10  10  10  10
                       4   4   4   4   4   4
 13      1     4       9   9   9   9
                       7   7   7   7
                      10  10  10  10
                      10  10  10  10
 14      1     9       4   4   4   0   4   4   4   4   4
                       6   6   6   0   6   6   6   6   6
                       2   2   2   0   2   2   2   2   2
                       3   3   3   0   3   3   3   3   3
 15      1     7       8   0   8   8   8   8   8
                       8   0   8   8   8   8   8
                       3   0   3   3   3   3   3
                       4   0   4   4   4   4   4
 16      1     1       9
                      10
                       2
                       1
 17      1     3       8   8   8
                       9   9   9
                       8   8   8
                       3   3   3
 18      1     8       1   1   1   1   1   1   0   1
                       8   8   8   8   8   8   0   8
                       8   8   8   8   8   8   0   8
                       7   7   7   7   7   7   0   7
 19      1     6       3   3   3   3   3   3
                       8   8   8   8   8   8
                       7   7   7   7   7   7
                       2   2   2   2   2   2
 20      1     3       0   1   1
                       0   9   9
                       0   5   5
                       0   6   6
 21      1     6       2   2   0   2   2   2
                      10  10   0  10  10  10
                       3   3   0   3   3   3
                       9   9   0   9   9   9
 22      1     2       3   3
                       6   6
                       4   4
                       1   1
 23      1     6       9   9   9   9   9   9
                       2   2   2   2   2   2
                       2   2   2   2   2   2
                       1   1   1   1   1   1
 24      1    10       9   9   9   9   9   9   9   0   9   0
                       2   2   2   2   2   2   2   0   2   0
                       6   6   6   6   6   6   6   0   6   0
                       5   5   5   5   5   5   5   0   5   0
 25      1     5       6   6   6   6   6
                       3   3   3   3   3
                       6   6   6   6   6
                       2   2   2   2   2
 26      1     8      10  10  10  10  10  10  10   0
                       4   4   4   4   4   4   4   0
                       4   4   4   4   4   4   4   0
                       3   3   3   3   3   3   3   0
 27      1     7       2   2   2   2   2   2   2
                       8   8   8   8   8   8   8
                       1   1   1   1   1   1   1
                       1   1   1   1   1   1   1
 28      1     3      10  10  10
                       5   5   5
                       2   2   2
                       4   4   4
 29      1     5       4   4   4   4   0
                       7   7   7   7   0
                       7   7   7   7   0
                       8   8   8   8   0
 30      1     7      10  10  10  10  10  10  10
                       6   6   6   6   6   6   6
                       7   7   7   7   7   7   7
                       2   2   2   2   2   2   2
 31      1     2      10  10
                       6   6
                       4   4
                       5   5
 32      1     4      10  10  10  10
                       1   1   1   1
                       4   4   4   4
                      10  10  10  10
 33      1     5       3   3   3   3   3
                       6   6   6   6   6
                       5   5   5   5   5
                       1   1   1   1   1
 34      1     1       2
                       4
                       8
                       3
 35      1     2       4   4
                       8   8
                      10  10
                       9   9
 36      1     3       6   6   6
                       6   6   6
                       2   2   2
                       2   2   2
 37      1     8       0   3   3   3   3   3   0   0
                       0   5   5   5   5   5   0   0
                       0   6   6   6   6   6   0   0
                       0   7   7   7   7   7   0   0
 38      1     5       1   0   1   1   0
                       8   0   8   8   0
                       7   0   7   7   0
                       2   0   2   2   0
 39      1     3       0   3   3
                       0   5   5
                       0   8   8
                       0   5   5
 40      1     7       3   0   3   3   3   3   3
                       4   0   4   4   4   4   4
                       1   0   1   1   1   1   1
                       5   0   5   5   5   5   5
 41      1     3       3   3   3
                       4   4   4
                       5   5   5
                       3   3   3
 42      1     6      10   0  10  10  10  10
                       6   0   6   6   6   6
                      10   0  10  10  10  10
                       1   0   1   1   1   1
 43      1     4       2   2   2   2
                       8   8   8   8
                       7   7   7   7
                       9   9   9   9
 44      1     5       8   0   8   8   8
                       9   0   9   9   9
                       4   0   4   4   4
                      10   0  10  10  10
 45      1    10       8   0   8   0   8   8   8   0   8   8
                       1   0   1   0   1   1   1   0   1   1
                       5   0   5   0   5   5   5   0   5   5
                       1   0   1   0   1   1   1   0   1   1
 46      1     5       7   7   7   7   7
                       3   3   3   3   3
                       6   6   6   6   6
                       2   2   2   2   2
 47      1     9       9   9   9   9   9   9   9   9   9
                       4   4   4   4   4   4   4   4   4
                       9   9   9   9   9   9   9   9   9
                       9   9   9   9   9   9   9   9   9
 48      1     1       2
                       4
                       3
                       6
 49      1     8       4   4   4   4   4   4   4   4
                       4   4   4   4   4   4   4   4
                       3   3   3   3   3   3   3   3
                       2   2   2   2   2   2   2   2
 50      1    10       1   1   1   1   1   0   1   1   1   1
                       6   6   6   6   6   0   6   6   6   6
                       3   3   3   3   3   0   3   3   3   3
                       3   3   3   3   3   0   3   3   3   3
 51      1     6       9   9   9   0   9   9
                       3   3   3   0   3   3
                       6   6   6   0   6   6
                       2   2   2   0   2   2
 52      1     2       7   7
                      10  10
                       9   9
                       5   5
 53      1     2      10  10
                       2   2
                       8   8
                       8   8
 54      1     1       2
                       7
                       1
                       5
 55      1     1       0
                       0
                       0
                       0
 56      1     8      10  10  10  10  10  10  10  10
                       3   3   3   3   3   3   3   3
                       5   5   5   5   5   5   5   5
                       3   3   3   3   3   3   3   3
 57      1     3       3   3   3
                       1   1   1
                       3   3   3
                       8   8   8
 58      1     2       1   1
                       7   7
                      10  10
                       9   9
 59      1     1       0
                       0
                       0
                       0
 60      1     7       1   0   1   1   1   1   1
                       5   0   5   5   5   5   5
                      10   0  10  10  10  10  10
                       2   0   2   2   2   2   2
 61      1    10       7   7   7   7   7   7   7   7   7   7
                       9   9   9   9   9   9   9   9   9   9
                       1   1   1   1   1   1   1   1   1   1
                       9   9   9   9   9   9   9   9   9   9
 62      1     9       1   1   1   1   1   1   1   1   1
                      10  10  10  10  10  10  10  10  10
                       4   4   4   4   4   4   4   4   4
                       3   3   3   3   3   3   3   3   3
 63      1     9       9   9   9   9   9   9   9   9   9
                       8   8   8   8   8   8   8   8   8
                       9   9   9   9   9   9   9   9   9
                       6   6   6   6   6   6   6   6   6
 64      1     2      10  10
                      10  10
                       1   1
                       4   4
 65      1     1       1
                       1
                       8
                       2
 66      1     4       4   4   4   4
                       7   7   7   7
                       4   4   4   4
                       9   9   9   9
 67      1     3       6   0   6
                      10   0  10
                       5   0   5
                       8   0   8
 68      1     3       5   0   5
                       7   0   7
                       2   0   2
                       9   0   9
 69      1     9       5   5   5   5   5   5   5   5   5
                       8   8   8   8   8   8   8   8   8
                       1   1   1   1   1   1   1   1   1
                       4   4   4   4   4   4   4   4   4
 70      1     7       3   0   3   3   3   3   3
                      10   0  10  10  10  10  10
                      10   0  10  10  10  10  10
                       9   0   9   9   9   9   9
 71      1     2       0   7
                       0  10
                       0   3
                       0   5
 72      1    10       8   8   0   0   8   0   8   8   8   0
                       9   9   0   0   9   0   9   9   9   0
                       9   9   0   0   9   0   9   9   9   0
                       4   4   0   0   4   0   4   4   4   0
 73      1     5       9   9   9   9   9
                       8   8   8   8   8
                       6   6   6   6   6
                       9   9   9   9   9
 74      1     6       9   9   9   9   9   0
                       4   4   4   4   4   0
                       1   1   1   1   1   0
                       1   1   1   1   1   0
 75      1    10       9   9   9   9   9   9   9   9   9   9
                       6   6   6   6   6   6   6   6   6   6
                       8   8   8   8   8   8   8   8   8   8
                       7   7   7   7   7   7   7   7   7   7
 76      1     9       6   6   6   0   6   6   6   0   6
                       5   5   5   0   5   5   5   0   5
                       7   7   7   0   7   7   7   0   7
                       7   7   7   0   7   7   7   0   7
 77      1     6       7   7   7   7   7   7
                       3   3   3   3   3   3
                       3   3   3   3   3   3
                       3   3   3   3   3   3
 78      1    10       2   2   0   0   2   2   2   2   2   2
                       2   2   0   0   2   2   2   2   2   2
                       6   6   0   0   6   6   6   6   6   6
                       1   1   0   0   1   1   1   1   1   1
 79      1     8      10  10  10  10  10  10  10  10
                       4   4   4   4   4   4   4   4
                       2   2   2   2   2   2   2   2
                       1   1   1   1   1   1   1   1
 80      1     8       4   4   4   0   4   4   4   4
                       2   2   2   0   2   2   2   2
                      10  10  10   0  10  10  10  10
                       4   4   4   0   4   4   4   4
 81      1     8       7   7   7   7   7   0   7   7
                       5   5   5   5   5   0   5   5
                       1   1   1   1   1   0   1   1
                       9   9   9   9   9   0   9   9
 82      1    10       0   4   4   4   4   4   4   4   4   4
                       0   1   1   1   1   1   1   1   1   1
                       0   1   1   1   1   1   1   1   1   1
                       0   7   7   7   7   7   7   7   7   7
 83      1     8       0   9   9   9   9   9   9   9
                       0   1   1   1   1   1   1   1
                       0   6   6   6   6   6   6   6
                       0   8   8   8   8   8   8   8
 84      1     9      10  10  10  10  10  10  10  10  10
                       6   6   6   6   6   6   6   6   6
                       6   6   6   6   6   6   6   6   6
                       8   8   8   8   8   8   8   8   8
 85      1     9       4   4   4   4   4   4   4   4   4
                       8   8   8   8   8   8   8   8   8
                       4   4   4   4   4   4   4   4   4
                      10  10  10  10  10  10  10  10  10
 86      1     8       8   8   8   8   8   8   0   8
                       3   3   3   3   3   3   0   3
                       3   3   3   3   3   3   0   3
                      10  10  10  10  10  10   0  10
 87      1     1      10
                       4
                       6
                       6
 88      1    10       6   0   6   0   6   6   6   6   6   6
                       5   0   5   0   5   5   5   5   5   5
                       3   0   3   0   3   3   3   3   3   3
                       8   0   8   0   8   8   8   8   8   8
 89      1     5       1   1   1   1   1
                       7   7   7   7   7
                       7   7   7   7   7
                      10  10  10  10  10
 90      1     5       6   6   6   6   6
                       6   6   6   6   6
                       5   5   5   5   5
                      10  10  10  10  10
 91      1    10       9   9   0   9   9   9   0   9   9   9
                       7   7   0   7   7   7   0   7   7   7
                       1   1   0   1   1   1   0   1   1   1
                       4   4   0   4   4   4   0   4   4   4
 92      1     6       8   8   8   0   8   8
                       5   5   5   0   5   5
                       3   3   3   0   3   3
                       7   7   7   0   7   7
 93      1     4       2   2   0   2
                       7   7   0   7
                       8   8   0   8
                       1   1   0   1
 94      1     7       8   8   8   8   8   0   8
                       7   7   7   7   7   0   7
                       8   8   8   8   8   0   8
                       4   4   4   4   4   0   4
 95      1     8       9   9   9   9   9   9   9   9
                      10  10  10  10  10  10  10  10
                       1   1   1   1   1   1   1   1
                      10  10  10  10  10  10  10  10
 96      1     5       5   5   5   5   0
                       8   8   8   8   0
                       7   7   7   7   0
                       2   2   2   2   0
 97      1     2       0   6
                       0   4
                       0   2
                       0   2
 98      1     1       1
                       7
                       3
                       8
 99      1     7       2   2   0   0   2   2   0
                      10  10   0   0  10  10   0
                      10  10   0   0  10  10   0
                      10  10   0   0  10  10   0
100      1    10       7   7   7   7   7   7   7   7   7   7
                       1   1   1   1   1   1   1   1   1   1
                      10  10  10  10  10  10  10  10  10  10
                      10  10  10  10  10  10  10  10  10  10
101      1     6       2   2   0   2   2   2
                       6   6   0   6   6   6
                       2   2   0   2   2   2
                       2   2   0   2   2   2
102      1     9       7   7   7   0   0   7   7   7   7
                       1   1   1   0   0   1   1   1   1
                       7   7   7   0   0   7   7   7   7
                       6   6   6   0   0   6   6   6   6
103      1     9       0   9   9   9   9   9   9   9   9
                       0  10  10  10  10  10  10  10  10
                       0   7   7   7   7   7   7   7   7
                       0  10  10  10  10  10  10  10  10
104      1     8       5   5   5   5   5   5   5   5
                       5   5   5   5   5   5   5   5
                       2   2   2   2   2   2   2   2
                       5   5   5   5   5   5   5   5
105      1     9       6   6   6   6   6   0   0   6   0
                       1   1   1   1   1   0   0   1   0
                       6   6   6   6   6   0   0   6   0
                       2   2   2   2   2   0   0   2   0
106      1     4      10  10  10  10
                       2   2   2   2
                      10  10  10  10
                       6   6   6   6
107      1    10      10  10  10  10  10  10  10  10  10   0
                       9   9   9   9   9   9   9   9   9   0
                       1   1   1   1   1   1   1   1   1   0
                       2   2   2   2   2   2   2   2   2   0
108      1     9       6   6   6   0   6   6   6   6   6
                       9   9   9   0   9   9   9   9   9
                       8   8   8   0   8   8   8   8   8
                       2   2   2   0   2   2   2   2   2
109      1     4       0   7   7   7
                       0   6   6   6
                       0   3   3   3
                       0   7   7   7
110      1     6       3   3   3   3   3   3
                       8   8   8   8   8   8
                       9   9   9   9   9   9
                       1   1   1   1   1   1
111      1     1       0
                       0
                       0
                       0
112      1     6       5   5   5   5   0   5
                       8   8   8   8   0   8
                      10  10  10  10   0  10
                       6   6   6   6   0   6
113      1     1       3
                       3
                       9
                       7
114      1     1       1
                       7
                       4
                       5
115      1     3       0   5   5
                       0   6   6
                       0   6   6
                       0   3   3
116      1     5       7   7   7   7   7
                       6   6   6   6   6
                      10  10  10  10  10
                       1   1   1   1   1
117      1     4       8   8   8   8
                       6   6   6   6
                       4   4   4   4
                       7   7   7   7
118      1     3       7   7   7
                       3   3   3
                       9   9   9
                       2   2   2
119      1     4       1   1   1   1
                       3   3   3   3
                       7   7   7   7
                       1   1   1   1
120      1     1       3
                       1
                      10
                      10
121      1     6       7   0   7   7   7   7
                       9   0   9   9   9   9
                       3   0   3   3   3   3
                       3   0   3   3   3   3
122      1     0    
************************************************************************
RESOURCEAVAILABILITIES:
  R 1  R 2  R 3  R 4

   0  20   0  20  20  20  20  20  20  20  20   0  20  20  20  20  20   0  20  20  20  20  20  20  20  20  20  20   0   0  20  20   0  20  20  20  20  20  20  20  20  20  20  20  20  20  20  20   0  20  20  20  20   0  20  20  20  20  20  20  20   0  20  20  20  20   0  20  20   0  20  20  20  20  20  20  20  20  20   0   0   0  20  20  20  20   0  20  20   0  20  20  20  20   0  20  20   0  20  20  20  20  20  20  20   0  20  20  20   0  20  20  20  20  20  20  20  20  20  20   0  20  20  20  20  20  20  20  20  20  20  20  20  20  20   0  20  20  20  20  20  20  20  20  20  20  20  20  20  20  20  20  20  20  20   0  20  20  20  20  20  20  20  20  20  20  20  20  20  20  20  20  20  20  20   0  20  20  20  20   0  20  20  20  20  20  20  20  20  20  20   0  20  20  20  20  20  20  20  20  20  20  20  20  20  20  20  20  20  20  20  20   0   0  20   0  20  20  20  20  20  20  20  20  20  20  20  20  20  20  20  20  20  20  20  20  20  20  20  20  20   0  20  20  20  20  20  20  20  20  20  20  20  20  20  20  20  20  20  20  20  20  20  20  20  20  20  20  20   0  20  20  20  20  20  20  20  20  20  20  20  20  20  20  20  20   0  20  20  20  20  20  20  20  20  20  20  20  20   0  20  20   0  20  20  20   0  20  20  20  20  20  20  20  20  20  20  20  20  20  20  20   0  20  20  20   0  20  20  20  20  20  20  20  20   0  20  20  20  20  20  20  20  20  20  20  20   0  20   0  20  20   0  20  20  20   0   0  20  20  20  20  20  20  20  20  20  20  20  20  20  20  20  20  20  20  20  20  20  20  20  20  20  20  20  20  20  20  20  20  20  20  20  20  20   0  20  20  20  20  20  20   0  20  20  20  20  20  20  20  20  20  20  20  20   0  20  20  20  20  20   0  20  20  20  20  20  20   0  20  20  20  20   0  20  20  20  20  20  20  20  20  20  20  20  20  20  20  20  20  20  20  20  20  20  20  20  20   0  20  20  20  20  20  20  20  20  20  20  20   0  20  20  20  20  20  20  20  20  20  20  20  20  20  20  20  20  20  20  20  20  20  20  20  20   0  20  20  20  20  20   0  20  20  20  20  20  20  20  20  20  20  20  20  20  20  20  20   0  20  20  20  20  20  20  20  20  20  20  20   0  20  20  20  20  20   0  20  20  20  20  20  20  20  20   0  20   0  20  20  20   0  20  20   0  20  20  20  20  20   0  20  20  20  20  20  20  20  20  20  20  20  20  20  20  20  20  20  20  20  20  20  20  20  20  20  20  20  20   0  20  20  20  20  20  20   0  20  20  20  20  20   0  20  20  20  20  20  20  20  20  20  20  20  20  20  20  20  20  20  20  20  20  20  20  20  20  20  20  20  20  20   0  20  20  20  20  20  20  20  20  20  20  20   0  20  20  20   0  20  20  20  20  20   0   0   0  20  20  20  20  20  20  20

   0  20   0  20  20  20  20  20  20  20  20   0  20  20  20  20  20   0  20  20  20  20  20  20  20  20  20  20   0   0  20  20   0  20  20  20  20  20  20  20  20  20  20  20  20  20  20  20   0  20  20  20  20   0  20  20  20  20  20  20  20   0  20  20  20  20   0  20  20   0  20  20  20  20  20  20  20  20  20   0   0   0  20  20  20  20   0  20  20   0  20  20  20  20   0  20  20   0  20  20  20  20  20  20  20   0  20  20  20   0  20  20  20  20  20  20  20  20  20  20   0  20  20  20  20  20  20  20  20  20  20  20  20  20  20   0  20  20  20  20  20  20  20  20  20  20  20  20  20  20  20  20  20  20  20   0  20  20  20  20  20  20  20  20  20  20  20  20  20  20  20  20  20  20  20   0  20  20  20  20   0  20  20  20  20  20  20  20  20  20  20   0  20  20  20  20  20  20  20  20  20  20  20  20  20  20  20  20  20  20  20  20   0   0  20   0  20  20  20  20  20  20  20  20  20  20  20  20  20  20  20  20  20  20  20  20  20  20  20  20  20   0  20  20  20  20  20  20  20  20  20  20  20  20  20  20  20  20  20  20  20  20  20  20  20  20  20  20  20   0  20  20  20  20  20  20  20  20  20  20  20  20  20  20  20  20   0  20  20  20  20  20  20  20  20  20  20  20  20   0  20  20   0  20  20  20   0  20  20  20  20  20  20  20  20  20  20  20  20  20  20  20   0  20  20  20   0  20  20  20  20  20  20  20  20   0  20  20  20  20  20  20  20  20  20  20  20   0  20   0  20  20   0  20  20  20   0   0  20  20  20  20  20  20  20  20  20  20  20  20  20  20  20  20  20  20  20  20  20  20  20  20  20  20  20  20  20  20  20  20  20  20  20  20  20   0  20  20  20  20  20  20   0  20  20  20  20  20  20  20  20  20  20  20  20   0  20  20  20  20  20   0  20  20  20  20  20  20   0  20  20  20  20   0  20  20  20  20  20  20  20  20  20  20  20  20  20  20  20  20  20  20  20  20  20  20  20  20   0  20  20  20  20  20  20  20  20  20  20  20   0  20  20  20  20  20  20  20  20  20  20  20  20  20  20  20  20  20  20  20  20  20  20  20  20   0  20  20  20  20  20   0  20  20  20  20  20  20  20  20  20  20  20  20  20  20  20  20   0  20  20  20  20  20  20  20  20  20  20  20   0  20  20  20  20  20   0  20  20  20  20  20  20  20  20   0  20   0  20  20  20   0  20  20   0  20  20  20  20  20   0  20  20  20  20  20  20  20  20  20  20  20  20  20  20  20  20  20  20  20  20  20  20  20  20  20  20  20  20   0  20  20  20  20  20  20   0  20  20  20  20  20   0  20  20  20  20  20  20  20  20  20  20  20  20  20  20  20  20  20  20  20  20  20  20  20  20  20  20  20  20  20   0  20  20  20  20  20  20  20  20  20  20  20   0  20  20  20   0  20  20  20  20  20   0   0   0  20  20  20  20  20  20  20

   0  18   0  18  18  18  18  18  18  18  18   0  18  18  18  18  18   0  18  18  18  18  18  18  18  18  18  18   0   0  18  18   0  18  18  18  18  18  18  18  18  18  18  18  18  18  18  18   0  18  18  18  18   0  18  18  18  18  18  18  18   0  18  18  18  18   0  18  18   0  18  18  18  18  18  18  18  18  18   0   0   0  18  18  18  18   0  18  18   0  18  18  18  18   0  18  18   0  18  18  18  18  18  18  18   0  18  18  18   0  18  18  18  18  18  18  18  18  18  18   0  18  18  18  18  18  18  18  18  18  18  18  18  18  18   0  18  18  18  18  18  18  18  18  18  18  18  18  18  18  18  18  18  18  18   0  18  18  18  18  18  18  18  18  18  18  18  18  18  18  18  18  18  18  18   0  18  18  18  18   0  18  18  18  18  18  18  18  18  18  18   0  18  18  18  18  18  18  18  18  18  18  18  18  18  18  18  18  18  18  18  18   0   0  18   0  18  18  18  18  18  18  18  18  18  18  18  18  18  18  18  18  18  18  18  18  18  18  18  18  18   0  18  18  18  18  18  18  18  18  18  18  18  18  18  18  18  18  18  18  18  18  18  18  18  18  18  18  18   0  18  18  18  18  18  18  18  18  18  18  18  18  18  18  18  18   0  18  18  18  18  18  18  18  18  18  18  18  18   0  18  18   0  18  18  18   0  18  18  18  18  18  18  18  18  18  18  18  18  18  18  18   0  18  18  18   0  18  18  18  18  18  18  18  18   0  18  18  18  18  18  18  18  18  18  18  18   0  18   0  18  18   0  18  18  18   0   0  18  18  18  18  18  18  18  18  18  18  18  18  18  18  18  18  18  18  18  18  18  18  18  18  18  18  18  18  18  18  18  18  18  18  18  18  18   0  18  18  18  18  18  18   0  18  18  18  18  18  18  18  18  18  18  18  18   0  18  18  18  18  18   0  18  18  18  18  18  18   0  18  18  18  18   0  18  18  18  18  18  18  18  18  18  18  18  18  18  18  18  18  18  18  18  18  18  18  18  18   0  18  18  18  18  18  18  18  18  18  18  18   0  18  18  18  18  18  18  18  18  18  18  18  18  18  18  18  18  18  18  18  18  18  18  18  18   0  18  18  18  18  18   0  18  18  18  18  18  18  18  18  18  18  18  18  18  18  18  18   0  18  18  18  18  18  18  18  18  18  18  18   0  18  18  18  18  18   0  18  18  18  18  18  18  18  18   0  18   0  18  18  18   0  18  18   0  18  18  18  18  18   0  18  18  18  18  18  18  18  18  18  18  18  18  18  18  18  18  18  18  18  18  18  18  18  18  18  18  18  18   0  18  18  18  18  18  18   0  18  18  18  18  18   0  18  18  18  18  18  18  18  18  18  18  18  18  18  18  18  18  18  18  18  18  18  18  18  18  18  18  18  18  18   0  18  18  18  18  18  18  18  18  18  18  18   0  18  18  18   0  18  18  18  18  18   0   0   0  18  18  18  18  18  18  18

   0  17   0  17  17  17  17  17  17  17  17   0  17  17  17  17  17   0  17  17  17  17  17  17  17  17  17  17   0   0  17  17   0  17  17  17  17  17  17  17  17  17  17  17  17  17  17  17   0  17  17  17  17   0  17  17  17  17  17  17  17   0  17  17  17  17   0  17  17   0  17  17  17  17  17  17  17  17  17   0   0   0  17  17  17  17   0  17  17   0  17  17  17  17   0  17  17   0  17  17  17  17  17  17  17   0  17  17  17   0  17  17  17  17  17  17  17  17  17  17   0  17  17  17  17  17  17  17  17  17  17  17  17  17  17   0  17  17  17  17  17  17  17  17  17  17  17  17  17  17  17  17  17  17  17   0  17  17  17  17  17  17  17  17  17  17  17  17  17  17  17  17  17  17  17   0  17  17  17  17   0  17  17  17  17  17  17  17  17  17  17   0  17  17  17  17  17  17  17  17  17  17  17  17  17  17  17  17  17  17  17  17   0   0  17   0  17  17  17  17  17  17  17  17  17  17  17  17  17  17  17  17  17  17  17  17  17  17  17  17  17   0  17  17  17  17  17  17  17  17  17  17  17  17  17  17  17  17  17  17  17  17  17  17  17  17  17  17  17   0  17  17  17  17  17  17  17  17  17  17  17  17  17  17  17  17   0  17  17  17  17  17  17  17  17  17  17  17  17   0  17  17   0  17  17  17   0  17  17  17  17  17  17  17  17  17  17  17  17  17  17  17   0  17  17  17   0  17  17  17  17  17  17  17  17   0  17  17  17  17  17  17  17  17  17  17  17   0  17   0  17  17   0  17  17  17   0   0  17  17  17  17  17  17  17  17  17  17  17  17  17  17  17  17  17  17  17  17  17  17  17  17  17  17  17  17  17  17  17  17  17  17  17  17  17   0  17  17  17  17  17  17   0  17  17  17  17  17  17  17  17  17  17  17  17   0  17  17  17  17  17   0  17  17  17  17  17  17   0  17  17  17  17   0  17  17  17  17  17  17  17  17  17  17  17  17  17  17  17  17  17  17  17  17  17  17  17  17   0  17  17  17  17  17  17  17  17  17  17  17   0  17  17  17  17  17  17  17  17  17  17  17  17  17  17  17  17  17  17  17  17  17  17  17  17   0  17  17  17  17  17   0  17  17  17  17  17  17  17  17  17  17  17  17  17  17  17  17   0  17  17  17  17  17  17  17  17  17  17  17   0  17  17  17  17  17   0  17  17  17  17  17  17  17  17   0  17   0  17  17  17   0  17  17   0  17  17  17  17  17   0  17  17  17  17  17  17  17  17  17  17  17  17  17  17  17  17  17  17  17  17  17  17  17  17  17  17  17  17   0  17  17  17  17  17  17   0  17  17  17  17  17   0  17  17  17  17  17  17  17  17  17  17  17  17  17  17  17  17  17  17  17  17  17  17  17  17  17  17  17  17  17   0  17  17  17  17  17  17  17  17  17  17  17   0  17  17  17   0  17  17  17  17  17   0   0   0  17  17  17  17  17  17  17

************************************************************************
